
(set-logic ALL) 

(declare-datatype MyList ((Nil) (Cons (head Real) (tail MyList)) )) 
(declare-fun l0 () MyList) 
(declare-fun l1 () MyList) 
(declare-fun l2 () MyList) 
(declare-fun l3 () MyList) 
(declare-fun i0 () Real) 
(declare-fun i1 () Real) 
(assert (is-Nil Nil) )
(assert (and (= l1 l2) (is-Nil Nil) (= l0 Nil) (is-Cons Nil)) )
(assert (or (is-Cons Nil) (= l0 Nil) (= l1 Nil)) )
(assert (or (= l3 l3) (= l1 l0)) )
(assert (is-Cons Nil) )
(assert (= l3 l0) )
(assert (= l3 l3) )
(assert (not (= l0 l0)) )
(check-sat)
